c ind 10 115 157 159 161 163 165 167 169 171 0
c ind 173 175 177 179 181 183 185 187 189 191 0
c ind 193 195 197 199 20 201 203 205 207 209 0
c ind 211 213 215 217 219 22 24 252 254 256 0
c ind 258 26 260 262 264 266 268 270 272 274 0
c ind 276 278 28 280 282 284 286 288 290 292 0
c ind 294 296 298 30 300 302 304 306 308 310 0
c ind 312 314 32 34 4 45 7 8 82 84 0
p cnf 648 1891
-1 2 0
-1 5 0
-100 101 0
-100 33 0
-101 102 0
-101 31 0
-102 103 0
-102 29 0
-103 104 0
-103 27 0
-104 105 0
-104 17 0
-105 -26 4 0
-105 -4 26 0
-106 -107 112 0
-106 107 116 0
-107 108 0
-107 33 0
-108 109 0
-108 31 0
-109 110 0
-109 29 0
-11 -12 9 0
-11 12 35 0
-110 111 0
-110 27 0
-111 105 0
-111 41 0
-112 -113 9 0
-112 113 44 0
-113 114 81 0
-114 -115 4 0
-114 -4 115 0
-116 -117 122 0
-116 117 315 0
-117 118 0
-117 33 0
-118 119 0
-118 31 0
-119 120 0
-119 29 0
-12 13 0
-12 33 0
-120 121 0
-120 16 0
-121 -28 4 0
-121 -4 28 0
-122 -113 9 0
-122 113 123 0
-123 -124 9 0
-123 124 44 0
-124 125 0
-124 220 0
-125 126 0
-125 218 0
-126 127 0
-126 216 0
-127 128 0
-127 214 0
-128 129 0
-128 212 0
-129 130 0
-129 210 0
-13 14 0
-13 31 0
-130 131 0
-130 208 0
-131 132 0
-131 206 0
-132 133 0
-132 204 0
-133 134 0
-133 202 0
-134 135 0
-134 200 0
-135 136 0
-135 198 0
-136 137 0
-136 196 0
-137 138 0
-137 194 0
-138 139 0
-138 192 0
-139 140 0
-139 190 0
-14 15 0
-14 29 0
-140 141 0
-140 188 0
-141 142 0
-141 186 0
-142 143 0
-142 184 0
-143 144 0
-143 182 0
-144 145 0
-144 180 0
-145 146 0
-145 178 0
-146 147 0
-146 176 0
-147 148 0
-147 174 0
-148 149 0
-148 172 0
-149 150 0
-149 170 0
-15 16 0
-15 27 0
-150 151 0
-150 168 0
-151 152 0
-151 166 0
-152 153 0
-152 164 0
-153 154 0
-153 162 0
-154 155 0
-154 160 0
-155 156 0
-155 158 0
-156 -157 8 0
-156 -8 157 0
-158 -159 8 0
-158 -8 159 0
-16 17 0
-16 25 0
-160 -161 8 0
-160 -8 161 0
-162 -163 8 0
-162 -8 163 0
-164 -165 8 0
-164 -8 165 0
-166 -167 8 0
-166 -8 167 0
-168 -169 8 0
-168 -8 169 0
-17 18 0
-17 23 0
-170 -171 8 0
-170 -8 171 0
-172 -173 8 0
-172 -8 173 0
-174 -175 8 0
-174 -8 175 0
-176 -177 8 0
-176 -8 177 0
-178 -179 8 0
-178 -8 179 0
-18 19 0
-18 21 0
-180 -181 8 0
-180 -8 181 0
-182 -183 8 0
-182 -8 183 0
-184 -185 8 0
-184 -8 185 0
-186 -187 8 0
-186 -8 187 0
-188 -189 8 0
-188 -8 189 0
-19 -20 8 0
-19 -8 20 0
-190 -191 8 0
-190 -8 191 0
-192 -193 8 0
-192 -8 193 0
-194 -195 8 0
-194 -8 195 0
-196 -197 8 0
-196 -8 197 0
-198 -199 8 0
-198 -8 199 0
-2 3 0
-2 4 0
-200 -201 8 0
-200 -8 201 0
-202 -203 8 0
-202 -8 203 0
-204 -205 8 0
-204 -8 205 0
-206 -207 8 0
-206 -8 207 0
-208 -209 8 0
-208 -8 209 0
-21 -22 8 0
-21 -8 22 0
-210 -211 8 0
-210 -8 211 0
-212 -213 8 0
-212 -8 213 0
-214 -215 8 0
-214 -8 215 0
-216 -217 8 0
-216 -8 217 0
-218 -219 8 0
-218 -8 219 0
-220 221 0
-220 313 0
-221 222 0
-221 311 0
-222 223 0
-222 309 0
-223 224 0
-223 307 0
-224 225 0
-224 305 0
-225 226 0
-225 303 0
-226 227 0
-226 301 0
-227 228 0
-227 299 0
-228 229 0
-228 297 0
-229 230 0
-229 295 0
-23 -24 8 0
-23 -8 24 0
-230 231 0
-230 293 0
-231 232 0
-231 291 0
-232 233 0
-232 289 0
-233 234 0
-233 287 0
-234 235 0
-234 285 0
-235 236 0
-235 283 0
-236 237 0
-236 281 0
-237 238 0
-237 279 0
-238 239 0
-238 277 0
-239 240 0
-239 275 0
-240 241 0
-240 273 0
-241 242 0
-241 271 0
-242 243 0
-242 269 0
-243 244 0
-243 267 0
-244 245 0
-244 265 0
-245 246 0
-245 263 0
-246 247 0
-246 261 0
-247 248 0
-247 259 0
-248 249 0
-248 257 0
-249 250 0
-249 255 0
-25 -26 8 0
-25 -8 26 0
-250 251 0
-250 253 0
-251 -252 8 0
-251 -8 252 0
-253 -254 8 0
-253 -8 254 0
-255 -256 8 0
-255 -8 256 0
-257 -258 8 0
-257 -8 258 0
-259 -260 8 0
-259 -8 260 0
-261 -262 8 0
-261 -8 262 0
-263 -264 8 0
-263 -8 264 0
-265 -266 8 0
-265 -8 266 0
-267 -268 8 0
-267 -8 268 0
-269 -270 8 0
-269 -8 270 0
-27 -28 8 0
-27 -8 28 0
-271 -272 8 0
-271 -8 272 0
-273 -274 8 0
-273 -8 274 0
-275 -276 8 0
-275 -8 276 0
-277 -278 8 0
-277 -8 278 0
-279 -280 8 0
-279 -8 280 0
-281 -282 8 0
-281 -8 282 0
-283 -284 8 0
-283 -8 284 0
-285 -286 8 0
-285 -8 286 0
-287 -288 8 0
-287 -8 288 0
-289 -290 8 0
-289 -8 290 0
-29 -30 8 0
-29 -8 30 0
-291 -292 8 0
-291 -8 292 0
-293 -294 8 0
-293 -8 294 0
-295 -296 8 0
-295 -8 296 0
-297 -298 8 0
-297 -8 298 0
-299 -300 8 0
-299 -8 300 0
-3 4 0
-301 -302 8 0
-301 -8 302 0
-303 -304 8 0
-303 -8 304 0
-305 -306 8 0
-305 -8 306 0
-307 -308 8 0
-307 -8 308 0
-309 -310 8 0
-309 -8 310 0
-31 -32 8 0
-31 -8 32 0
-311 -312 8 0
-311 -8 312 0
-313 -314 8 0
-313 -8 314 0
-315 -316 320 0
-315 316 354 0
-316 317 0
-316 33 0
-317 31 0
-317 318 0
-318 29 0
-318 319 0
-319 121 0
-319 40 0
-320 -113 9 0
-320 113 321 0
-321 -322 9 0
-321 322 44 0
-322 218 0
-322 323 0
-323 216 0
-323 324 0
-324 214 0
-324 325 0
-325 212 0
-325 326 0
-326 210 0
-326 327 0
-327 208 0
-327 328 0
-328 206 0
-328 329 0
-329 204 0
-329 330 0
-33 -34 8 0
-33 -8 34 0
-330 202 0
-330 331 0
-331 200 0
-331 332 0
-332 198 0
-332 333 0
-333 196 0
-333 334 0
-334 194 0
-334 335 0
-335 192 0
-335 336 0
-336 190 0
-336 337 0
-337 188 0
-337 338 0
-338 186 0
-338 339 0
-339 184 0
-339 340 0
-340 182 0
-340 341 0
-341 180 0
-341 342 0
-342 178 0
-342 343 0
-343 176 0
-343 344 0
-344 174 0
-344 345 0
-345 172 0
-345 346 0
-346 170 0
-346 347 0
-347 168 0
-347 348 0
-348 166 0
-348 349 0
-349 164 0
-349 350 0
-35 -36 44 0
-35 36 46 0
-350 162 0
-350 351 0
-351 160 0
-351 352 0
-352 158 0
-352 353 0
-353 -157 4 0
-353 -4 157 0
-354 -355 359 0
-354 355 426 0
-355 33 0
-355 356 0
-356 31 0
-356 357 0
-357 29 0
-357 358 0
-358 121 0
-358 51 0
-359 -113 9 0
-359 113 360 0
-36 33 0
-36 37 0
-360 -361 9 0
-360 361 44 0
-361 362 0
-361 394 0
-362 218 0
-362 363 0
-363 216 0
-363 364 0
-364 214 0
-364 365 0
-365 212 0
-365 366 0
-366 210 0
-366 367 0
-367 208 0
-367 368 0
-368 206 0
-368 369 0
-369 204 0
-369 370 0
-37 31 0
-37 38 0
-370 202 0
-370 371 0
-371 200 0
-371 372 0
-372 198 0
-372 373 0
-373 196 0
-373 374 0
-374 194 0
-374 375 0
-375 192 0
-375 376 0
-376 190 0
-376 377 0
-377 188 0
-377 378 0
-378 186 0
-378 379 0
-379 184 0
-379 380 0
-38 29 0
-38 39 0
-380 182 0
-380 381 0
-381 180 0
-381 382 0
-382 178 0
-382 383 0
-383 176 0
-383 384 0
-384 174 0
-384 385 0
-385 172 0
-385 386 0
-386 170 0
-386 387 0
-387 168 0
-387 388 0
-388 166 0
-388 389 0
-389 164 0
-389 390 0
-39 27 0
-39 40 0
-390 162 0
-390 391 0
-391 160 0
-391 392 0
-392 156 0
-392 393 0
-393 -159 4 0
-393 -4 159 0
-394 313 0
-394 395 0
-395 311 0
-395 396 0
-396 309 0
-396 397 0
-397 307 0
-397 398 0
-398 305 0
-398 399 0
-399 303 0
-399 400 0
-40 25 0
-40 41 0
-400 301 0
-400 401 0
-401 299 0
-401 402 0
-402 297 0
-402 403 0
-403 295 0
-403 404 0
-404 293 0
-404 405 0
-405 291 0
-405 406 0
-406 289 0
-406 407 0
-407 287 0
-407 408 0
-408 285 0
-408 409 0
-409 283 0
-409 410 0
-41 23 0
-41 42 0
-410 281 0
-410 411 0
-411 279 0
-411 412 0
-412 277 0
-412 413 0
-413 275 0
-413 414 0
-414 273 0
-414 415 0
-415 271 0
-415 416 0
-416 269 0
-416 417 0
-417 267 0
-417 418 0
-418 265 0
-418 419 0
-419 263 0
-419 420 0
-42 21 0
-42 43 0
-420 261 0
-420 421 0
-421 259 0
-421 422 0
-422 257 0
-422 423 0
-423 255 0
-423 424 0
-424 253 0
-424 425 0
-425 -252 4 0
-425 -4 252 0
-426 -427 431 0
-426 427 463 0
-427 33 0
-427 428 0
-428 31 0
-428 429 0
-429 29 0
-429 430 0
-43 -20 4 0
-43 -4 20 0
-430 121 0
-430 60 0
-431 -113 9 0
-431 113 432 0
-432 -433 9 0
-432 433 44 0
-433 125 0
-433 434 0
-434 313 0
-434 435 0
-435 311 0
-435 436 0
-436 309 0
-436 437 0
-437 307 0
-437 438 0
-438 305 0
-438 439 0
-439 303 0
-439 440 0
-44 -10 45 0
-44 -45 10 0
-440 301 0
-440 441 0
-441 299 0
-441 442 0
-442 297 0
-442 443 0
-443 295 0
-443 444 0
-444 293 0
-444 445 0
-445 291 0
-445 446 0
-446 289 0
-446 447 0
-447 287 0
-447 448 0
-448 285 0
-448 449 0
-449 283 0
-449 450 0
-450 281 0
-450 451 0
-451 279 0
-451 452 0
-452 277 0
-452 453 0
-453 275 0
-453 454 0
-454 273 0
-454 455 0
-455 271 0
-455 456 0
-456 269 0
-456 457 0
-457 267 0
-457 458 0
-458 265 0
-458 459 0
-459 263 0
-459 460 0
-46 -47 44 0
-46 47 55 0
-460 261 0
-460 461 0
-461 248 0
-461 462 0
-462 -260 4 0
-462 -4 260 0
-463 -464 468 0
-463 464 501 0
-464 33 0
-464 465 0
-465 31 0
-465 466 0
-466 29 0
-466 467 0
-467 121 0
-467 68 0
-468 -113 9 0
-468 113 469 0
-469 -470 9 0
-469 470 44 0
-47 33 0
-47 48 0
-470 218 0
-470 471 0
-471 216 0
-471 472 0
-472 214 0
-472 473 0
-473 212 0
-473 474 0
-474 210 0
-474 475 0
-475 208 0
-475 476 0
-476 206 0
-476 477 0
-477 204 0
-477 478 0
-478 202 0
-478 479 0
-479 200 0
-479 480 0
-48 31 0
-48 49 0
-480 198 0
-480 481 0
-481 196 0
-481 482 0
-482 194 0
-482 483 0
-483 192 0
-483 484 0
-484 190 0
-484 485 0
-485 188 0
-485 486 0
-486 186 0
-486 487 0
-487 184 0
-487 488 0
-488 182 0
-488 489 0
-489 180 0
-489 490 0
-49 29 0
-49 50 0
-490 178 0
-490 491 0
-491 176 0
-491 492 0
-492 174 0
-492 493 0
-493 172 0
-493 494 0
-494 170 0
-494 495 0
-495 168 0
-495 496 0
-496 166 0
-496 497 0
-497 164 0
-497 498 0
-498 162 0
-498 499 0
-499 160 0
-499 500 0
-5 -6 9 0
-5 6 11 0
-50 27 0
-50 51 0
-500 353 0
-500 393 0
-501 -502 506 0
-501 502 539 0
-502 33 0
-502 503 0
-503 31 0
-503 504 0
-504 29 0
-504 505 0
-505 121 0
-505 77 0
-506 -113 9 0
-506 113 507 0
-507 -508 9 0
-507 508 44 0
-508 218 0
-508 509 0
-509 216 0
-509 510 0
-51 25 0
-51 52 0
-510 214 0
-510 511 0
-511 212 0
-511 512 0
-512 210 0
-512 513 0
-513 208 0
-513 514 0
-514 206 0
-514 515 0
-515 204 0
-515 516 0
-516 202 0
-516 517 0
-517 200 0
-517 518 0
-518 198 0
-518 519 0
-519 196 0
-519 520 0
-52 23 0
-52 53 0
-520 194 0
-520 521 0
-521 192 0
-521 522 0
-522 190 0
-522 523 0
-523 188 0
-523 524 0
-524 186 0
-524 525 0
-525 184 0
-525 526 0
-526 182 0
-526 527 0
-527 180 0
-527 528 0
-528 178 0
-528 529 0
-529 176 0
-529 530 0
-53 19 0
-53 54 0
-530 174 0
-530 531 0
-531 172 0
-531 532 0
-532 170 0
-532 533 0
-533 168 0
-533 534 0
-534 166 0
-534 535 0
-535 164 0
-535 536 0
-536 162 0
-536 537 0
-537 392 0
-537 538 0
-538 -161 4 0
-538 -4 161 0
-539 -540 544 0
-539 540 576 0
-54 -22 4 0
-54 -4 22 0
-540 33 0
-540 541 0
-541 31 0
-541 542 0
-542 29 0
-542 543 0
-543 121 0
-543 90 0
-544 -113 9 0
-544 113 545 0
-545 -546 9 0
-545 546 44 0
-546 218 0
-546 547 0
-547 216 0
-547 548 0
-548 214 0
-548 549 0
-549 212 0
-549 550 0
-55 -56 44 0
-55 56 63 0
-550 210 0
-550 551 0
-551 208 0
-551 552 0
-552 206 0
-552 553 0
-553 204 0
-553 554 0
-554 202 0
-554 555 0
-555 200 0
-555 556 0
-556 198 0
-556 557 0
-557 196 0
-557 558 0
-558 194 0
-558 559 0
-559 192 0
-559 560 0
-56 33 0
-56 57 0
-560 190 0
-560 561 0
-561 188 0
-561 562 0
-562 186 0
-562 563 0
-563 184 0
-563 564 0
-564 182 0
-564 565 0
-565 180 0
-565 566 0
-566 178 0
-566 567 0
-567 176 0
-567 568 0
-568 174 0
-568 569 0
-569 172 0
-569 570 0
-57 31 0
-57 58 0
-570 170 0
-570 571 0
-571 168 0
-571 572 0
-572 166 0
-572 573 0
-573 164 0
-573 574 0
-574 154 0
-574 575 0
-575 -163 4 0
-575 -4 163 0
-576 -577 581 0
-576 577 583 0
-577 33 0
-577 578 0
-578 31 0
-578 579 0
-579 29 0
-579 580 0
-58 29 0
-58 59 0
-580 121 0
-580 97 0
-581 -113 9 0
-581 113 582 0
-582 -125 9 0
-582 125 44 0
-583 -584 588 0
-583 584 619 0
-584 33 0
-584 585 0
-585 31 0
-585 586 0
-586 29 0
-586 587 0
-587 104 0
-587 121 0
-588 -113 9 0
-588 113 589 0
-589 -590 9 0
-589 590 44 0
-59 27 0
-59 60 0
-590 218 0
-590 591 0
-591 216 0
-591 592 0
-592 214 0
-592 593 0
-593 212 0
-593 594 0
-594 210 0
-594 595 0
-595 208 0
-595 596 0
-596 206 0
-596 597 0
-597 204 0
-597 598 0
-598 202 0
-598 599 0
-599 200 0
-599 600 0
-6 -7 8 0
-6 -8 7 0
-60 25 0
-60 61 0
-600 198 0
-600 601 0
-601 196 0
-601 602 0
-602 194 0
-602 603 0
-603 192 0
-603 604 0
-604 190 0
-604 605 0
-605 188 0
-605 606 0
-606 186 0
-606 607 0
-607 184 0
-607 608 0
-608 182 0
-608 609 0
-609 180 0
-609 610 0
-61 23 0
-61 62 0
-610 178 0
-610 611 0
-611 176 0
-611 612 0
-612 174 0
-612 613 0
-613 172 0
-613 614 0
-614 170 0
-614 615 0
-615 168 0
-615 616 0
-616 166 0
-616 617 0
-617 164 0
-617 618 0
-618 351 0
-618 575 0
-619 -620 581 0
-619 620 624 0
-62 43 0
-62 54 0
-620 33 0
-620 621 0
-621 31 0
-621 622 0
-622 29 0
-622 623 0
-623 111 0
-623 121 0
-624 -625 581 0
-624 625 629 0
-625 33 0
-625 626 0
-626 31 0
-626 627 0
-627 15 0
-627 628 0
-628 -30 4 0
-628 -4 30 0
-629 -630 581 0
-629 630 633 0
-63 -64 71 0
-63 64 72 0
-630 33 0
-630 631 0
-631 31 0
-631 632 0
-632 39 0
-632 628 0
-633 -634 581 0
-633 634 637 0
-634 33 0
-634 635 0
-635 31 0
-635 636 0
-636 50 0
-636 628 0
-637 -638 581 0
-637 638 641 0
-638 33 0
-638 639 0
-639 31 0
-639 640 0
-64 33 0
-64 65 0
-640 59 0
-640 628 0
-641 -642 581 0
-641 642 645 0
-642 33 0
-642 643 0
-643 31 0
-643 644 0
-644 628 0
-644 67 0
-645 -646 581 0
-645 646 9 0
-646 33 0
-646 647 0
-647 31 0
-647 648 0
-648 628 0
-648 76 0
-65 31 0
-65 66 0
-66 29 0
-66 67 0
-67 27 0
-67 68 0
-68 25 0
-68 69 0
-69 18 0
-69 70 0
-70 -24 4 0
-70 -4 24 0
-71 -10 8 0
-71 -8 10 0
-72 -73 79 0
-72 73 85 0
-73 33 0
-73 74 0
-74 31 0
-74 75 0
-75 29 0
-75 76 0
-76 27 0
-76 77 0
-77 25 0
-77 78 0
-78 42 0
-78 70 0
-79 -80 9 0
-79 80 44 0
-8 0
-80 81 0
-80 83 0
-81 -4 82 0
-81 -82 4 0
-83 -4 84 0
-83 -84 4 0
-85 -86 44 0
-85 86 92 0
-86 33 0
-86 87 0
-87 31 0
-87 88 0
-88 29 0
-88 89 0
-89 27 0
-89 90 0
-9 -10 4 0
-9 -4 10 0
-90 25 0
-90 91 0
-91 53 0
-91 70 0
-92 -93 44 0
-92 93 99 0
-93 33 0
-93 94 0
-94 31 0
-94 95 0
-95 29 0
-95 96 0
-96 27 0
-96 97 0
-97 25 0
-97 98 0
-98 62 0
-98 70 0
-99 -100 71 0
-99 100 106 0
1 -2 -5 0
1 0
100 -101 -33 0
101 -102 -31 0
102 -103 -29 0
103 -104 -27 0
104 -17 -105 0
105 -26 -4 0
105 26 4 0
106 -107 -112 0
106 -112 -116 0
106 107 -116 0
107 -108 -33 0
108 -109 -31 0
109 -110 -29 0
11 -12 -9 0
11 -9 -35 0
11 12 -35 0
110 -111 -27 0
111 -41 -105 0
112 -113 -9 0
112 -9 -44 0
112 113 -44 0
113 -114 0
113 -81 0
114 -115 -4 0
114 115 4 0
116 -117 -122 0
116 -122 -315 0
116 117 -315 0
117 -118 -33 0
118 -119 -31 0
119 -120 -29 0
12 -13 -33 0
120 -16 -121 0
121 -28 -4 0
121 28 4 0
122 -113 -9 0
122 -9 -123 0
122 113 -123 0
123 -124 -9 0
123 -9 -44 0
123 124 -44 0
124 -125 -220 0
125 -126 -218 0
126 -127 -216 0
127 -128 -214 0
128 -129 -212 0
129 -130 -210 0
13 -14 -31 0
130 -131 -208 0
131 -132 -206 0
132 -133 -204 0
133 -134 -202 0
134 -135 -200 0
135 -136 -198 0
136 -137 -196 0
137 -138 -194 0
138 -139 -192 0
139 -140 -190 0
14 -15 -29 0
140 -141 -188 0
141 -142 -186 0
142 -143 -184 0
143 -144 -182 0
144 -145 -180 0
145 -146 -178 0
146 -147 -176 0
147 -148 -174 0
148 -149 -172 0
149 -150 -170 0
15 -16 -27 0
150 -151 -168 0
151 -152 -166 0
152 -153 -164 0
153 -154 -162 0
154 -155 -160 0
155 -156 -158 0
156 -157 -8 0
156 157 8 0
158 -159 -8 0
158 159 8 0
16 -17 -25 0
160 -161 -8 0
160 161 8 0
162 -163 -8 0
162 163 8 0
164 -165 -8 0
164 165 8 0
166 -167 -8 0
166 167 8 0
168 -169 -8 0
168 169 8 0
17 -18 -23 0
170 -171 -8 0
170 171 8 0
172 -173 -8 0
172 173 8 0
174 -175 -8 0
174 175 8 0
176 -177 -8 0
176 177 8 0
178 -179 -8 0
178 179 8 0
18 -19 -21 0
180 -181 -8 0
180 181 8 0
182 -183 -8 0
182 183 8 0
184 -185 -8 0
184 185 8 0
186 -187 -8 0
186 187 8 0
188 -189 -8 0
188 189 8 0
19 -20 -8 0
19 20 8 0
190 -191 -8 0
190 191 8 0
192 -193 -8 0
192 193 8 0
194 -195 -8 0
194 195 8 0
196 -197 -8 0
196 197 8 0
198 -199 -8 0
198 199 8 0
2 -3 -4 0
200 -201 -8 0
200 201 8 0
202 -203 -8 0
202 203 8 0
204 -205 -8 0
204 205 8 0
206 -207 -8 0
206 207 8 0
208 -209 -8 0
208 209 8 0
21 -22 -8 0
21 22 8 0
210 -211 -8 0
210 211 8 0
212 -213 -8 0
212 213 8 0
214 -215 -8 0
214 215 8 0
216 -217 -8 0
216 217 8 0
218 -219 -8 0
218 219 8 0
220 -221 -313 0
221 -222 -311 0
222 -223 -309 0
223 -224 -307 0
224 -225 -305 0
225 -226 -303 0
226 -227 -301 0
227 -228 -299 0
228 -229 -297 0
229 -230 -295 0
23 -24 -8 0
23 24 8 0
230 -231 -293 0
231 -232 -291 0
232 -233 -289 0
233 -234 -287 0
234 -235 -285 0
235 -236 -283 0
236 -237 -281 0
237 -238 -279 0
238 -239 -277 0
239 -240 -275 0
240 -241 -273 0
241 -242 -271 0
242 -243 -269 0
243 -244 -267 0
244 -245 -265 0
245 -246 -263 0
246 -247 -261 0
247 -248 -259 0
248 -249 -257 0
249 -250 -255 0
25 -26 -8 0
25 26 8 0
250 -251 -253 0
251 -252 -8 0
251 252 8 0
253 -254 -8 0
253 254 8 0
255 -256 -8 0
255 256 8 0
257 -258 -8 0
257 258 8 0
259 -260 -8 0
259 260 8 0
261 -262 -8 0
261 262 8 0
263 -264 -8 0
263 264 8 0
265 -266 -8 0
265 266 8 0
267 -268 -8 0
267 268 8 0
269 -270 -8 0
269 270 8 0
27 -28 -8 0
27 28 8 0
271 -272 -8 0
271 272 8 0
273 -274 -8 0
273 274 8 0
275 -276 -8 0
275 276 8 0
277 -278 -8 0
277 278 8 0
279 -280 -8 0
279 280 8 0
281 -282 -8 0
281 282 8 0
283 -284 -8 0
283 284 8 0
285 -286 -8 0
285 286 8 0
287 -288 -8 0
287 288 8 0
289 -290 -8 0
289 290 8 0
29 -30 -8 0
29 30 8 0
291 -292 -8 0
291 292 8 0
293 -294 -8 0
293 294 8 0
295 -296 -8 0
295 296 8 0
297 -298 -8 0
297 298 8 0
299 -300 -8 0
299 300 8 0
3 -4 -4 0
301 -302 -8 0
301 302 8 0
303 -304 -8 0
303 304 8 0
305 -306 -8 0
305 306 8 0
307 -308 -8 0
307 308 8 0
309 -310 -8 0
309 310 8 0
31 -32 -8 0
31 32 8 0
311 -312 -8 0
311 312 8 0
313 -314 -8 0
313 314 8 0
315 -316 -320 0
315 -320 -354 0
315 316 -354 0
316 -317 -33 0
317 -318 -31 0
318 -319 -29 0
319 -40 -121 0
320 -113 -9 0
320 -9 -321 0
320 113 -321 0
321 -322 -9 0
321 -9 -44 0
321 322 -44 0
322 -323 -218 0
323 -324 -216 0
324 -325 -214 0
325 -326 -212 0
326 -327 -210 0
327 -328 -208 0
328 -329 -206 0
329 -330 -204 0
33 -34 -8 0
33 34 8 0
330 -331 -202 0
331 -332 -200 0
332 -333 -198 0
333 -334 -196 0
334 -335 -194 0
335 -336 -192 0
336 -337 -190 0
337 -338 -188 0
338 -339 -186 0
339 -340 -184 0
340 -341 -182 0
341 -342 -180 0
342 -343 -178 0
343 -344 -176 0
344 -345 -174 0
345 -346 -172 0
346 -347 -170 0
347 -348 -168 0
348 -349 -166 0
349 -350 -164 0
35 -36 -44 0
35 -44 -46 0
35 36 -46 0
350 -351 -162 0
351 -352 -160 0
352 -353 -158 0
353 -157 -4 0
353 157 4 0
354 -355 -359 0
354 -359 -426 0
354 355 -426 0
355 -356 -33 0
356 -357 -31 0
357 -358 -29 0
358 -51 -121 0
359 -113 -9 0
359 -9 -360 0
359 113 -360 0
36 -37 -33 0
360 -361 -9 0
360 -9 -44 0
360 361 -44 0
361 -362 -394 0
362 -363 -218 0
363 -364 -216 0
364 -365 -214 0
365 -366 -212 0
366 -367 -210 0
367 -368 -208 0
368 -369 -206 0
369 -370 -204 0
37 -38 -31 0
370 -371 -202 0
371 -372 -200 0
372 -373 -198 0
373 -374 -196 0
374 -375 -194 0
375 -376 -192 0
376 -377 -190 0
377 -378 -188 0
378 -379 -186 0
379 -380 -184 0
38 -39 -29 0
380 -381 -182 0
381 -382 -180 0
382 -383 -178 0
383 -384 -176 0
384 -385 -174 0
385 -386 -172 0
386 -387 -170 0
387 -388 -168 0
388 -389 -166 0
389 -390 -164 0
39 -40 -27 0
390 -391 -162 0
391 -392 -160 0
392 -156 -393 0
393 -159 -4 0
393 159 4 0
394 -395 -313 0
395 -396 -311 0
396 -397 -309 0
397 -398 -307 0
398 -399 -305 0
399 -400 -303 0
4 0
40 -41 -25 0
400 -401 -301 0
401 -402 -299 0
402 -403 -297 0
403 -404 -295 0
404 -405 -293 0
405 -406 -291 0
406 -407 -289 0
407 -408 -287 0
408 -409 -285 0
409 -410 -283 0
41 -42 -23 0
410 -411 -281 0
411 -412 -279 0
412 -413 -277 0
413 -414 -275 0
414 -415 -273 0
415 -416 -271 0
416 -417 -269 0
417 -418 -267 0
418 -419 -265 0
419 -420 -263 0
42 -43 -21 0
420 -421 -261 0
421 -422 -259 0
422 -423 -257 0
423 -424 -255 0
424 -425 -253 0
425 -252 -4 0
425 252 4 0
426 -427 -431 0
426 -431 -463 0
426 427 -463 0
427 -428 -33 0
428 -429 -31 0
429 -430 -29 0
43 -20 -4 0
43 20 4 0
430 -60 -121 0
431 -113 -9 0
431 -9 -432 0
431 113 -432 0
432 -433 -9 0
432 -9 -44 0
432 433 -44 0
433 -125 -434 0
434 -435 -313 0
435 -436 -311 0
436 -437 -309 0
437 -438 -307 0
438 -439 -305 0
439 -440 -303 0
44 -10 -45 0
44 10 45 0
440 -441 -301 0
441 -442 -299 0
442 -443 -297 0
443 -444 -295 0
444 -445 -293 0
445 -446 -291 0
446 -447 -289 0
447 -448 -287 0
448 -449 -285 0
449 -450 -283 0
450 -451 -281 0
451 -452 -279 0
452 -453 -277 0
453 -454 -275 0
454 -455 -273 0
455 -456 -271 0
456 -457 -269 0
457 -458 -267 0
458 -459 -265 0
459 -460 -263 0
46 -44 -55 0
46 -47 -44 0
46 47 -55 0
460 -461 -261 0
461 -248 -462 0
462 -260 -4 0
462 260 4 0
463 -464 -468 0
463 -468 -501 0
463 464 -501 0
464 -465 -33 0
465 -466 -31 0
466 -467 -29 0
467 -68 -121 0
468 -113 -9 0
468 -9 -469 0
468 113 -469 0
469 -470 -9 0
469 -9 -44 0
469 470 -44 0
47 -48 -33 0
470 -471 -218 0
471 -472 -216 0
472 -473 -214 0
473 -474 -212 0
474 -475 -210 0
475 -476 -208 0
476 -477 -206 0
477 -478 -204 0
478 -479 -202 0
479 -480 -200 0
48 -49 -31 0
480 -481 -198 0
481 -482 -196 0
482 -483 -194 0
483 -484 -192 0
484 -485 -190 0
485 -486 -188 0
486 -487 -186 0
487 -488 -184 0
488 -489 -182 0
489 -490 -180 0
49 -50 -29 0
490 -491 -178 0
491 -492 -176 0
492 -493 -174 0
493 -494 -172 0
494 -495 -170 0
495 -496 -168 0
496 -497 -166 0
497 -498 -164 0
498 -499 -162 0
499 -500 -160 0
5 -6 -9 0
5 -9 -11 0
5 6 -11 0
50 -51 -27 0
500 -353 -393 0
501 -502 -506 0
501 -506 -539 0
501 502 -539 0
502 -503 -33 0
503 -504 -31 0
504 -505 -29 0
505 -77 -121 0
506 -113 -9 0
506 -9 -507 0
506 113 -507 0
507 -508 -9 0
507 -9 -44 0
507 508 -44 0
508 -509 -218 0
509 -510 -216 0
51 -52 -25 0
510 -511 -214 0
511 -512 -212 0
512 -513 -210 0
513 -514 -208 0
514 -515 -206 0
515 -516 -204 0
516 -517 -202 0
517 -518 -200 0
518 -519 -198 0
519 -520 -196 0
52 -53 -23 0
520 -521 -194 0
521 -522 -192 0
522 -523 -190 0
523 -524 -188 0
524 -525 -186 0
525 -526 -184 0
526 -527 -182 0
527 -528 -180 0
528 -529 -178 0
529 -530 -176 0
53 -19 -54 0
530 -531 -174 0
531 -532 -172 0
532 -533 -170 0
533 -534 -168 0
534 -535 -166 0
535 -536 -164 0
536 -537 -162 0
537 -392 -538 0
538 -161 -4 0
538 161 4 0
539 -540 -544 0
539 -544 -576 0
539 540 -576 0
54 -22 -4 0
54 22 4 0
540 -541 -33 0
541 -542 -31 0
542 -543 -29 0
543 -90 -121 0
544 -113 -9 0
544 -9 -545 0
544 113 -545 0
545 -546 -9 0
545 -9 -44 0
545 546 -44 0
546 -547 -218 0
547 -548 -216 0
548 -549 -214 0
549 -550 -212 0
55 -44 -63 0
55 -56 -44 0
55 56 -63 0
550 -551 -210 0
551 -552 -208 0
552 -553 -206 0
553 -554 -204 0
554 -555 -202 0
555 -556 -200 0
556 -557 -198 0
557 -558 -196 0
558 -559 -194 0
559 -560 -192 0
56 -57 -33 0
560 -561 -190 0
561 -562 -188 0
562 -563 -186 0
563 -564 -184 0
564 -565 -182 0
565 -566 -180 0
566 -567 -178 0
567 -568 -176 0
568 -569 -174 0
569 -570 -172 0
57 -58 -31 0
570 -571 -170 0
571 -572 -168 0
572 -573 -166 0
573 -574 -164 0
574 -154 -575 0
575 -163 -4 0
575 163 4 0
576 -577 -581 0
576 -581 -583 0
576 577 -583 0
577 -578 -33 0
578 -579 -31 0
579 -580 -29 0
58 -59 -29 0
580 -97 -121 0
581 -113 -9 0
581 -9 -582 0
581 113 -582 0
582 -125 -9 0
582 -9 -44 0
582 125 -44 0
583 -584 -588 0
583 -588 -619 0
583 584 -619 0
584 -585 -33 0
585 -586 -31 0
586 -587 -29 0
587 -104 -121 0
588 -113 -9 0
588 -9 -589 0
588 113 -589 0
589 -590 -9 0
589 -9 -44 0
589 590 -44 0
59 -60 -27 0
590 -591 -218 0
591 -592 -216 0
592 -593 -214 0
593 -594 -212 0
594 -595 -210 0
595 -596 -208 0
596 -597 -206 0
597 -598 -204 0
598 -599 -202 0
599 -600 -200 0
6 -7 -8 0
6 7 8 0
60 -61 -25 0
600 -601 -198 0
601 -602 -196 0
602 -603 -194 0
603 -604 -192 0
604 -605 -190 0
605 -606 -188 0
606 -607 -186 0
607 -608 -184 0
608 -609 -182 0
609 -610 -180 0
61 -62 -23 0
610 -611 -178 0
611 -612 -176 0
612 -613 -174 0
613 -614 -172 0
614 -615 -170 0
615 -616 -168 0
616 -617 -166 0
617 -618 -164 0
618 -351 -575 0
619 -581 -624 0
619 -620 -581 0
619 620 -624 0
62 -43 -54 0
620 -621 -33 0
621 -622 -31 0
622 -623 -29 0
623 -111 -121 0
624 -581 -629 0
624 -625 -581 0
624 625 -629 0
625 -626 -33 0
626 -627 -31 0
627 -15 -628 0
628 -30 -4 0
628 30 4 0
629 -581 -633 0
629 -630 -581 0
629 630 -633 0
63 -64 -71 0
63 -71 -72 0
63 64 -72 0
630 -631 -33 0
631 -632 -31 0
632 -39 -628 0
633 -581 -637 0
633 -634 -581 0
633 634 -637 0
634 -635 -33 0
635 -636 -31 0
636 -50 -628 0
637 -581 -641 0
637 -638 -581 0
637 638 -641 0
638 -639 -33 0
639 -640 -31 0
64 -65 -33 0
640 -59 -628 0
641 -581 -645 0
641 -642 -581 0
641 642 -645 0
642 -643 -33 0
643 -644 -31 0
644 -67 -628 0
645 -581 -9 0
645 -646 -581 0
645 646 -9 0
646 -647 -33 0
647 -648 -31 0
648 -76 -628 0
65 -66 -31 0
66 -67 -29 0
67 -68 -27 0
68 -69 -25 0
69 -18 -70 0
70 -24 -4 0
70 24 4 0
71 -10 -8 0
71 10 8 0
72 -73 -79 0
72 -79 -85 0
72 73 -85 0
73 -74 -33 0
74 -75 -31 0
75 -76 -29 0
76 -77 -27 0
77 -78 -25 0
78 -42 -70 0
79 -80 -9 0
79 -9 -44 0
79 80 -44 0
80 -81 -83 0
81 -82 -4 0
81 82 4 0
83 -84 -4 0
83 84 4 0
85 -44 -92 0
85 -86 -44 0
85 86 -92 0
86 -87 -33 0
87 -88 -31 0
88 -89 -29 0
89 -90 -27 0
9 -10 -4 0
9 10 4 0
90 -91 -25 0
91 -53 -70 0
92 -44 -99 0
92 -93 -44 0
92 93 -99 0
93 -94 -33 0
94 -95 -31 0
95 -96 -29 0
96 -97 -27 0
97 -98 -25 0
98 -62 -70 0
99 -100 -71 0
99 -71 -106 0
99 100 -106 0
